; Options: -q --produce-models --incremental --print-success --lang smt2.6 --arrays-exp
(set-logic ALL)

(declare-fun start!1229 () Bool)

(assert start!1229)

(declare-fun b!5737 () Bool)

(declare-fun e!2967 () Bool)

(declare-fun i!327 () (_ BitVec 32))

(declare-fun jz!70 () (_ BitVec 32))

(assert (=> b!5737 (= e!2967 (and (bvslt i!327 jz!70) (not (= (bvand i!327 #b10000000000000000000000000000000) #b00000000000000000000000000000000)) (not (= (bvand i!327 #b10000000000000000000000000000000) (bvand (bvsub i!327 #b00000000000000000000000000000001) #b10000000000000000000000000000000)))))))

(declare-fun b!5735 () Bool)

(declare-fun res!4583 () Bool)

(assert (=> b!5735 (=> (not res!4583) (not e!2967))))

(declare-datatypes ((array!466 0))(
  ( (array!467 (arr!204 (Array (_ BitVec 32) (_ FloatingPoint 11 53))) (size!204 (_ BitVec 32))) )
))
(declare-fun fq!78 () array!466)

(declare-fun qq!74 () array!466)

(assert (=> b!5735 (= res!4583 (and (fp.leq (fp #b0 #b00000000000 #b0000000000000000000000000000000000000000000000000000) (select (store ((as const (Array (_ BitVec 32) (_ FloatingPoint 11 53))) (fp #b0 #b00000000000 #b0000000000000000000000000000000000000000000000000000)) #b00000000000000000000000000000000 (fp.mul roundNearestTiesToEven (fp #b0 #b01111111111 #b1001001000011111101101000000000000000000000000000000) (select (arr!204 qq!74) #b00000000000000000000000000000000))) #b00000000000000000000000000000000)) (fp.leq (select (store ((as const (Array (_ BitVec 32) (_ FloatingPoint 11 53))) (fp #b0 #b00000000000 #b0000000000000000000000000000000000000000000000000000)) #b00000000000000000000000000000000 (fp.mul roundNearestTiesToEven (fp #b0 #b01111111111 #b1001001000011111101101000000000000000000000000000000) (select (arr!204 qq!74) #b00000000000000000000000000000000))) #b00000000000000000000000000000000) (fp #b0 #b01111111110 #b1001001000011111101100001101101111000000100110000000)) (fp.leq (fp #b0 #b00000000000 #b0000000000000000000000000000000000000000000000000000) (select (store (store ((as const (Array (_ BitVec 32) (_ FloatingPoint 11 53))) (fp #b0 #b00000000000 #b0000000000000000000000000000000000000000000000000000)) #b00000000000000000000000000000000 (fp.mul roundNearestTiesToEven (fp #b0 #b01111111111 #b1001001000011111101101000000000000000000000000000000) (select (arr!204 qq!74) #b00000000000000000000000000000000))) #b00000000000000000000000000000001 (fp.add roundNearestTiesToEven (fp.mul roundNearestTiesToEven (fp #b0 #b01111111111 #b1001001000011111101101000000000000000000000000000000) (select (arr!204 qq!74) #b00000000000000000000000000000001)) (fp.mul roundNearestTiesToEven (fp #b0 #b01111100111 #b0100010001000010110100000000000000000000000000000000) (select (arr!204 qq!74) #b00000000000000000000000000000000)))) #b00000000000000000000000000000001)) (fp.leq (select (store (store ((as const (Array (_ BitVec 32) (_ FloatingPoint 11 53))) (fp #b0 #b00000000000 #b0000000000000000000000000000000000000000000000000000)) #b00000000000000000000000000000000 (fp.mul roundNearestTiesToEven (fp #b0 #b01111111111 #b1001001000011111101101000000000000000000000000000000) (select (arr!204 qq!74) #b00000000000000000000000000000000))) #b00000000000000000000000000000001 (fp.add roundNearestTiesToEven (fp.mul roundNearestTiesToEven (fp #b0 #b01111111111 #b1001001000011111101101000000000000000000000000000000) (select (arr!204 qq!74) #b00000000000000000000000000000001)) (fp.mul roundNearestTiesToEven (fp #b0 #b01111100111 #b0100010001000010110100000000000000000000000000000000) (select (arr!204 qq!74) #b00000000000000000000000000000000)))) #b00000000000000000000000000000001) (fp #b0 #b01111101000 #b0001101000100000100011001001010011001110101111100000)) (fp.leq (fp #b0 #b00000000000 #b0000000000000000000000000000000000000000000000000000) (select (store (store (store ((as const (Array (_ BitVec 32) (_ FloatingPoint 11 53))) (fp #b0 #b00000000000 #b0000000000000000000000000000000000000000000000000000)) #b00000000000000000000000000000000 (fp.mul roundNearestTiesToEven (fp #b0 #b01111111111 #b1001001000011111101101000000000000000000000000000000) (select (arr!204 qq!74) #b00000000000000000000000000000000))) #b00000000000000000000000000000001 (fp.add roundNearestTiesToEven (fp.mul roundNearestTiesToEven (fp #b0 #b01111111111 #b1001001000011111101101000000000000000000000000000000) (select (arr!204 qq!74) #b00000000000000000000000000000001)) (fp.mul roundNearestTiesToEven (fp #b0 #b01111100111 #b0100010001000010110100000000000000000000000000000000) (select (arr!204 qq!74) #b00000000000000000000000000000000)))) #b00000000000000000000000000000010 (fp.add roundNearestTiesToEven (fp.add roundNearestTiesToEven (fp.mul roundNearestTiesToEven (fp #b0 #b01111111111 #b1001001000011111101101000000000000000000000000000000) (select (arr!204 qq!74) #b00000000000000000000000000000010)) (fp.mul roundNearestTiesToEven (fp #b0 #b01111100111 #b0100010001000010110100000000000000000000000000000000) (select (arr!204 qq!74) #b00000000000000000000000000000001))) (fp.mul roundNearestTiesToEven (fp #b0 #b01111001111 #b1000010001101001100010000000000000000000000000000000) (select (arr!204 qq!74) #b00000000000000000000000000000000)))) #b00000000000000000000000000000010)) (fp.leq (select (store (store (store ((as const (Array (_ BitVec 32) (_ FloatingPoint 11 53))) (fp #b0 #b00000000000 #b0000000000000000000000000000000000000000000000000000)) #b00000000000000000000000000000000 (fp.mul roundNearestTiesToEven (fp #b0 #b01111111111 #b1001001000011111101101000000000000000000000000000000) (select (arr!204 qq!74) #b00000000000000000000000000000000))) #b00000000000000000000000000000001 (fp.add roundNearestTiesToEven (fp.mul roundNearestTiesToEven (fp #b0 #b01111111111 #b1001001000011111101101000000000000000000000000000000) (select (arr!204 qq!74) #b00000000000000000000000000000001)) (fp.mul roundNearestTiesToEven (fp #b0 #b01111100111 #b0100010001000010110100000000000000000000000000000000) (select (arr!204 qq!74) #b00000000000000000000000000000000)))) #b00000000000000000000000000000010 (fp.add roundNearestTiesToEven (fp.add roundNearestTiesToEven (fp.mul roundNearestTiesToEven (fp #b0 #b01111111111 #b1001001000011111101101000000000000000000000000000000) (select (arr!204 qq!74) #b00000000000000000000000000000010)) (fp.mul roundNearestTiesToEven (fp #b0 #b01111100111 #b0100010001000010110100000000000000000000000000000000) (select (arr!204 qq!74) #b00000000000000000000000000000001))) (fp.mul roundNearestTiesToEven (fp #b0 #b01111001111 #b1000010001101001100010000000000000000000000000000000) (select (arr!204 qq!74) #b00000000000000000000000000000000)))) #b00000000000000000000000000000010) (fp #b0 #b01111010000 #b1100110001001011101000011101001010011001111110100000)) (fp.leq (fp #b0 #b00000000000 #b0000000000000000000000000000000000000000000000000000) (select (store (store (store (store ((as const (Array (_ BitVec 32) (_ FloatingPoint 11 53))) (fp #b0 #b00000000000 #b0000000000000000000000000000000000000000000000000000)) #b00000000000000000000000000000000 (fp.mul roundNearestTiesToEven (fp #b0 #b01111111111 #b1001001000011111101101000000000000000000000000000000) (select (arr!204 qq!74) #b00000000000000000000000000000000))) #b00000000000000000000000000000001 (fp.add roundNearestTiesToEven (fp.mul roundNearestTiesToEven (fp #b0 #b01111111111 #b1001001000011111101101000000000000000000000000000000) (select (arr!204 qq!74) #b00000000000000000000000000000001)) (fp.mul roundNearestTiesToEven (fp #b0 #b01111100111 #b0100010001000010110100000000000000000000000000000000) (select (arr!204 qq!74) #b00000000000000000000000000000000)))) #b00000000000000000000000000000010 (fp.add roundNearestTiesToEven (fp.add roundNearestTiesToEven (fp.mul roundNearestTiesToEven (fp #b0 #b01111111111 #b1001001000011111101101000000000000000000000000000000) (select (arr!204 qq!74) #b00000000000000000000000000000010)) (fp.mul roundNearestTiesToEven (fp #b0 #b01111100111 #b0100010001000010110100000000000000000000000000000000) (select (arr!204 qq!74) #b00000000000000000000000000000001))) (fp.mul roundNearestTiesToEven (fp #b0 #b01111001111 #b1000010001101001100010000000000000000000000000000000) (select (arr!204 qq!74) #b00000000000000000000000000000000)))) #b00000000000000000000000000000011 (fp.add roundNearestTiesToEven (fp.add roundNearestTiesToEven (fp.add roundNearestTiesToEven (fp.mul roundNearestTiesToEven (fp #b0 #b01111111111 #b1001001000011111101101000000000000000000000000000000) (select (arr!204 qq!74) #b00000000000000000000000000000011)) (fp.mul roundNearestTiesToEven (fp #b0 #b01111100111 #b0100010001000010110100000000000000000000000000000000) (select (arr!204 qq!74) #b00000000000000000000000000000010))) (fp.mul roundNearestTiesToEven (fp #b0 #b01111001111 #b1000010001101001100010000000000000000000000000000000) (select (arr!204 qq!74) #b00000000000000000000000000000001))) (fp.mul roundNearestTiesToEven (fp #b0 #b01110110111 #b1000110011000101000101100000000000000000000000000000) (select (arr!204 qq!74) #b00000000000000000000000000000000)))) #b00000000000000000000000000000011)) (fp.leq (select (store (store (store (store ((as const (Array (_ BitVec 32) (_ FloatingPoint 11 53))) (fp #b0 #b00000000000 #b0000000000000000000000000000000000000000000000000000)) #b00000000000000000000000000000000 (fp.mul roundNearestTiesToEven (fp #b0 #b01111111111 #b1001001000011111101101000000000000000000000000000000) (select (arr!204 qq!74) #b00000000000000000000000000000000))) #b00000000000000000000000000000001 (fp.add roundNearestTiesToEven (fp.mul roundNearestTiesToEven (fp #b0 #b01111111111 #b1001001000011111101101000000000000000000000000000000) (select (arr!204 qq!74) #b00000000000000000000000000000001)) (fp.mul roundNearestTiesToEven (fp #b0 #b01111100111 #b0100010001000010110100000000000000000000000000000000) (select (arr!204 qq!74) #b00000000000000000000000000000000)))) #b00000000000000000000000000000010 (fp.add roundNearestTiesToEven (fp.add roundNearestTiesToEven (fp.mul roundNearestTiesToEven (fp #b0 #b01111111111 #b1001001000011111101101000000000000000000000000000000) (select (arr!204 qq!74) #b00000000000000000000000000000010)) (fp.mul roundNearestTiesToEven (fp #b0 #b01111100111 #b0100010001000010110100000000000000000000000000000000) (select (arr!204 qq!74) #b00000000000000000000000000000001))) (fp.mul roundNearestTiesToEven (fp #b0 #b01111001111 #b1000010001101001100010000000000000000000000000000000) (select (arr!204 qq!74) #b00000000000000000000000000000000)))) #b00000000000000000000000000000011 (fp.add roundNearestTiesToEven (fp.add roundNearestTiesToEven (fp.add roundNearestTiesToEven (fp.mul roundNearestTiesToEven (fp #b0 #b01111111111 #b1001001000011111101101000000000000000000000000000000) (select (arr!204 qq!74) #b00000000000000000000000000000011)) (fp.mul roundNearestTiesToEven (fp #b0 #b01111100111 #b0100010001000010110100000000000000000000000000000000) (select (arr!204 qq!74) #b00000000000000000000000000000010))) (fp.mul roundNearestTiesToEven (fp #b0 #b01111001111 #b1000010001101001100010000000000000000000000000000000) (select (arr!204 qq!74) #b00000000000000000000000000000001))) (fp.mul roundNearestTiesToEven (fp #b0 #b01110110111 #b1000110011000101000101100000000000000000000000000000) (select (arr!204 qq!74) #b00000000000000000000000000000000)))) #b00000000000000000000000000000011) (fp #b0 #b01110111001 #b0100100001001011101001000100011000011011101101111000)) (bvsle #b00000000000000000000000000000100 i!327) (bvsle i!327 jz!70) (= (size!204 fq!78) #b00000000000000000000000000010100)))))

(declare-fun b!5734 () Bool)

(declare-fun res!4584 () Bool)

(assert (=> b!5734 (=> (not res!4584) (not e!2967))))

(declare-fun qqInv!0 (array!466) Bool)

(assert (=> b!5734 (= res!4584 (qqInv!0 qq!74))))

(declare-fun res!4585 () Bool)

(assert (=> start!1229 (=> (not res!4585) (not e!2967))))

(assert (=> start!1229 (= res!4585 (and (bvsle #b00000000000000000000000000000000 jz!70) (bvslt jz!70 #b00000000000000000000000000010100) (= (size!204 qq!74) #b00000000000000000000000000010100)))))

(assert (=> start!1229 e!2967))

(assert (=> start!1229 true))

(declare-fun array_inv!154 (array!466) Bool)

(assert (=> start!1229 (array_inv!154 qq!74)))

(assert (=> start!1229 (array_inv!154 fq!78)))

(declare-fun b!5736 () Bool)

(declare-fun res!4586 () Bool)

(assert (=> b!5736 (=> (not res!4586) (not e!2967))))

(declare-fun fqInv!0 (array!466) Bool)

(assert (=> b!5736 (= res!4586 (fqInv!0 fq!78))))

(assert (= (and start!1229 res!4585) b!5734))

(assert (= (and b!5734 res!4584) b!5735))

(assert (= (and b!5735 res!4583) b!5736))

(assert (= (and b!5736 res!4586) b!5737))

(declare-fun m!10333 () Bool)

(assert (=> b!5735 m!10333))

(declare-fun m!10335 () Bool)

(assert (=> b!5735 m!10335))

(declare-fun m!10337 () Bool)

(assert (=> b!5735 m!10337))

(declare-fun m!10339 () Bool)

(assert (=> b!5735 m!10339))

(declare-fun m!10341 () Bool)

(assert (=> b!5735 m!10341))

(declare-fun m!10343 () Bool)

(assert (=> b!5735 m!10343))

(declare-fun m!10345 () Bool)

(assert (=> b!5735 m!10345))

(declare-fun m!10347 () Bool)

(assert (=> b!5735 m!10347))

(declare-fun m!10349 () Bool)

(assert (=> b!5735 m!10349))

(declare-fun m!10351 () Bool)

(assert (=> b!5735 m!10351))

(declare-fun m!10353 () Bool)

(assert (=> b!5735 m!10353))

(declare-fun m!10355 () Bool)

(assert (=> b!5735 m!10355))

(declare-fun m!10357 () Bool)

(assert (=> b!5734 m!10357))

(declare-fun m!10359 () Bool)

(assert (=> start!1229 m!10359))

(declare-fun m!10361 () Bool)

(assert (=> start!1229 m!10361))

(declare-fun m!10363 () Bool)

(assert (=> b!5736 m!10363))

(push 1)

(assert (not b!5736))

(assert (not b!5734))

(assert (not start!1229))

(check-sat)

(pop 1)

(push 1)

(check-sat)

(pop 1)

